NAME: instance_2729
TYPE: TSP
DIMENSION: 20
EDGE_WEIGHT_TYPE: EUC_2D
NODE_COORD_SECTION
0 62.06 2.47
1 79.20 29.83
2 18.30 31.48
3 57.42 93.47
4 40.07 51.01
5 79.94 41.31
6 89.98 24.33
7 3.85 74.80
8 18.60 56.80
9 4.70 55.08
10 23.99 57.14
11 38.14 78.35
12 77.34 80.21
13 39.46 29.72
14 72.23 78.80
15 59.87 83.32
16 63.64 33.18
17 5.07 22.06
18 79.61 54.77
19 31.87 6.87
EOF
